DIMENSION: 7
EDGE_WEIGHT_TYPE: EXPLICIT
EDGE_WEIGHT_FORMAT: FULL_MATRIX
EDGE_WEIGHT_SECTION:
32767 32767 35 21 44 32767 81 
32767 32767 32767 83 67 80 72 
35 32767 32767 32767 32 32767 32767 
21 83 32767 32767 32767 32767 32767 
44 67 32 32767 32767 32767 32767 
32767 80 32767 32767 32767 32767 10 
81 72 32767 32767 32767 10 32767 
EOF